100
128
33
63
2
28
35
61
9
37
48
64
61
13
30
22
63
30
15
20
3
2
62
2
41
3
20
40
29
34
23
49
21
38
23
44
32
28
19
24
39
44
32
24
20
51
20
2
40
45
43
30
32
26
63
23
2
50
47
38
57
21
10
40
40
29
40
21
20
52
27
58
2
2
37
23
24
30
52
46
27
26
40
63
25
35
48
44
23
46
50
5
24
55
26
64
32
46
32
46
23
58